sat
(
  (define-fun ProcProv5 () Int
    8)
  (define-fun StorageProv1 () Int
    2000)
  (define-fun C3_VM4 () Int
    0)
  (define-fun VM2Type () Int
    0)
  (define-fun ProcProv2 () Int
    3)
  (define-fun C1_VM3 () Int
    0)
  (define-fun MemProv6 () Int
    68400)
  (define-fun C1_VM6 () Int
    0)
  (define-fun MemProv4 () Int
    7500)
  (define-fun C5_VM2 () Int
    0)
  (define-fun C5_VM1 () Int
    0)
  (define-fun MemProv2 () Int
    7499)
  (define-fun C4_VM3 () Int
    0)
  (define-fun StorageProv6 () Int
    2000)
  (define-fun C5_VM4 () Int
    1)
  (define-fun C3_VM6 () Int
    0)
  (define-fun PriceProv2 () Int
    0)
  (define-fun PriceProv6 () Int
    1288)
  (define-fun C4_VM5 () Int
    0)
  (define-fun C2_VM1 () Int
    0)
  (define-fun StorageProv4 () Int
    2000)
  (define-fun C2_VM4 () Int
    1)
  (define-fun C3_VM3 () Int
    0)
  (define-fun C3_VM5 () Int
    1)
  (define-fun StorageProv3 () Int
    2000)
  (define-fun C5_VM6 () Int
    0)
  (define-fun C4_VM1 () Int
    0)
  (define-fun PriceProv5 () Int
    632)
  (define-fun VM5Type () Int
    21)
  (define-fun C1_VM4 () Int
    0)
  (define-fun C2_VM3 () Int
    1)
  (define-fun PriceProv1 () Int
    252)
  (define-fun PriceProv3 () Int
    252)
  (define-fun ProcProv4 () Int
    4)
  (define-fun C2_VM6 () Int
    0)
  (define-fun MemProv5 () Int
    7000)
  (define-fun C3_VM2 () Int
    0)
  (define-fun C5_VM3 () Int
    1)
  (define-fun C1_VM2 () Int
    0)
  (define-fun VM4Type () Int
    26)
  (define-fun VM1Type () Int
    27)
  (define-fun C4_VM2 () Int
    0)
  (define-fun C1_VM5 () Int
    0)
  (define-fun ProcProv1 () Int
    4)
  (define-fun MemProv1 () Int
    7500)
  (define-fun C5_VM5 () Int
    1)
  (define-fun VM3Type () Int
    26)
  (define-fun ProcProv6 () Int
    8)
  (define-fun C2_VM2 () Int
    0)
  (define-fun ProcProv3 () Int
    4)
  (define-fun VM6Type () Int
    22)
  (define-fun C2_VM5 () Int
    0)
  (define-fun StorageProv2 () Int
    1999)
  (define-fun PriceProv4 () Int
    252)
  (define-fun C4_VM4 () Int
    0)
  (define-fun StorageProv5 () Int
    4000)
  (define-fun C4_VM6 () Int
    1)
  (define-fun C3_VM1 () Int
    0)
  (define-fun MemProv3 () Int
    7500)
  (define-fun C1_VM1 () Int
    1)
)
(objectives
 ( 13)
 ((+ 0 PriceProv1 PriceProv2 PriceProv3 PriceProv4 PriceProv5 PriceProv6) 2676)
)
(:added-eqs                   140970
 :arith-eq-adapter            9483
 :arith-bound-propagations-lp 7875
 :arith-conflicts             20
 :arith-diseq                 176990
 :arith-fixed-eqs             3280
 :arith-lower                 177309
 :arith-make-feasible         16664
 :arith-max-columns           147
 :arith-max-rows              20
 :arith-upper                 203263
 :binary-propagations         785682
 :conflicts                   2744
 :decisions                   43532
 :del-clause                  18075
 :final-checks                55
 :max-memory                  45.94
 :memory                      45.94
 :minimized-lits              29152
 :mk-bool-var                 20262
 :mk-clause                   19618
 :mk-clause-binary            4343
 :num-allocs                  90768100
 :num-checks                  56
 :pb-conflicts                1383
 :pb-predicates               558
 :pb-propagations             12628
 :pb-resolves                 1376
 :propagations                1294409
 :restarts                    19
 :rlimit-count                6988514
 :solve-eqs-elim-vars         1
 :solve-eqs-steps             10
 :time                        0.35
 :total-time                  0.35)
